; chc-comp19-benchmarks/./lra-ts/chc-lra-ts-0114_000.smt2
(set-logic HORN)

(declare-fun |state| ( Bool Bool Bool Bool Real Real Real Real Real Real Real Real Real Real Real Real Real Real Real Real Real Real Real ) Bool)

(assert
  (forall ( (A Bool) (B Bool) (C Bool) (D Bool) (E Real) (F Real) (G Real) (H Real) (I Real) (J Real) (K Real) (L Real) (M Real) (N Real) (O Real) (P Real) (Q Real) (R Real) (S Real) (T Real) (U Real) (V Real) (W Real) ) 
    (=>
      (and
        (and (not C) (not B) (not A) (not D))
      )
      (state A B C D E F G H I J K L M N O P Q R S T U V W)
    )
  )
)
(assert
  (forall ( (A Bool) (B Bool) (C Bool) (D Bool) (E Real) (F Real) (G Real) (H Real) (I Real) (J Real) (K Real) (L Real) (M Real) (N Real) (O Real) (P Real) (Q Real) (R Real) (S Real) (T Real) (U Real) (V Real) (W Real) (X Real) (Y Real) (Z Real) (A1 Real) (B1 Real) (C1 Real) (D1 Real) (E1 Real) (F1 Real) (G1 Real) (H1 Real) (I1 Real) (J1 Real) (K1 Real) (L1 Real) (M1 Real) (N1 Real) (O1 Real) (P1 Real) (Q1 Real) (R1 Real) (S1 Real) (T1 Real) (U1 Real) (V1 Real) (W1 Real) (X1 Bool) (Y1 Bool) (Z1 Bool) (A2 Bool) (B2 Real) (C2 Real) (D2 Real) (E2 Real) (F2 Real) (G2 Real) (H2 Real) (I2 Real) (J2 Real) (K2 Real) (L2 Real) (M2 Real) (N2 Real) (O2 Real) (P2 Real) (Q2 Real) (R2 Real) (S2 Real) (T2 Real) (U2 Real) (V2 Real) (W2 Real) (X2 Real) (Y2 Real) (Z2 Real) (A3 Real) (B3 Real) ) 
    (=>
      (and
        (state A B C D E F G H I J K L M N O P Q R S T U V W)
        (let ((a!1 (or (and (= A1 T2) (not (= A1 0.0)) (= C1 D1) (= C1 0.0))
               (and (= A1 T2) (= A1 0.0) (= C1 0.0) (= D1 3221225659.0))))
      (a!6 (or (and (= A1 Y2) (not (= A1 0.0)) (= C1 D1) (= C1 0.0))
               (and (= A1 Y2) (= A1 0.0) (= C1 0.0) (= D1 3221225659.0))))
      (a!12 (or (and (= A1 N2) (not (= A1 0.0)) (= C1 D1) (= C1 0.0))
                (and (= A1 N2) (= A1 0.0) (= C1 0.0) (= D1 3221225659.0))))
      (a!15 (or (and (= A1 B1) (not (= A1 0.0)) (= C1 D1) (= C1 0.0))
                (and (= A1 B1) (= A1 0.0) (= C1 0.0) (= D1 3221225659.0))))
      (a!18 (or (and (= A1 I2) (not (= A1 0.0)) (= C1 D1) (= C1 0.0))
                (and (= A1 I2) (= A1 0.0) (= C1 0.0) (= D1 3221225659.0))))
      (a!20 (or (and (= A1 D2) (not (= A1 0.0)) (= C1 D1) (= C1 0.0))
                (and (= A1 D2) (= A1 0.0) (= C1 0.0) (= D1 3221225659.0)))))
(let ((a!2 (or (and a!1
                    (= O2 0.0)
                    (= S2 3.0)
                    (= Y U2)
                    (= Y 0.0)
                    (= E1 1.0)
                    (= F1 O2)
                    (= M1 0.0)
                    (= M1 1.0))
               (and a!1
                    (= O2 0.0)
                    (= S2 3.0)
                    (= Y U2)
                    (= Y 0.0)
                    (= E1 1.0)
                    (= F1 1.0)
                    (not (= M1 0.0))
                    (= M1 1.0))))
      (a!7 (or (and a!6
                    (= O2 0.0)
                    (= X2 3.0)
                    (= Y Z2)
                    (= Y 0.0)
                    (= E1 1.0)
                    (= F1 O2)
                    (= M1 0.0)
                    (= M1 1.0))
               (and a!6
                    (= O2 0.0)
                    (= X2 3.0)
                    (= Y Z2)
                    (= Y 0.0)
                    (= E1 1.0)
                    (= F1 1.0)
                    (not (= M1 0.0))
                    (= M1 1.0))))
      (a!13 (or (and a!12
                     (= M2 3.0)
                     (= O2 0.0)
                     (= Y P2)
                     (= Y 0.0)
                     (= F1 O2)
                     (= H1 1.0)
                     (= M1 0.0)
                     (= M1 1.0))
                (and a!12
                     (= M2 3.0)
                     (= O2 0.0)
                     (= Y P2)
                     (= Y 0.0)
                     (= F1 1.0)
                     (= H1 1.0)
                     (not (= M1 0.0))
                     (= M1 1.0))))
      (a!16 (or (and a!15
                     (= Y G1)
                     (not (= Y 0.0))
                     (= Y 1.0)
                     (not (= Y 2.0))
                     (not (= Y 23.0))
                     (= Z 3.0)
                     (= E1 1.0)
                     (= F1 0.0))
                (and a!15
                     (= Y G1)
                     (not (= Y 0.0))
                     (not (= Y 1.0))
                     (not (= Y 2.0))
                     (not (= Y 23.0))
                     (= Y 5.0)
                     (= Z 3.0)
                     (= E1 1.0)
                     (= F1 0.0))
                (and a!15
                     (= Y G1)
                     (not (= Y 0.0))
                     (not (= Y 1.0))
                     (not (= Y 2.0))
                     (= Y 3.0)
                     (not (= Y 23.0))
                     (not (= Y 5.0))
                     (= Z 3.0)
                     (= E1 1.0)
                     (= F1 0.0))
                (and a!15
                     (= Y G1)
                     (not (= Y 0.0))
                     (not (= Y 1.0))
                     (not (= Y 2.0))
                     (not (= Y 3.0))
                     (not (= Y 23.0))
                     (not (= Y 5.0))
                     (= Y 6.0)
                     (= Z 3.0)
                     (= E1 1.0)
                     (= F1 0.0))
                (and a!15
                     (= Y G1)
                     (not (= Y 0.0))
                     (not (= Y 1.0))
                     (not (= Y 2.0))
                     (not (= Y 3.0))
                     (not (= Y 23.0))
                     (not (= Y 5.0))
                     (not (= Y 6.0))
                     (= Y 13.0)
                     (= Z 3.0)
                     (= E1 1.0)
                     (= F1 0.0))
                (and a!15
                     (= Y G1)
                     (not (= Y 0.0))
                     (not (= Y 1.0))
                     (not (= Y 2.0))
                     (not (= Y 3.0))
                     (not (= Y 23.0))
                     (not (= Y 5.0))
                     (not (= Y 6.0))
                     (not (= Y 13.0))
                     (= Y 4.0)
                     (= Z 3.0)
                     (= E1 1.0)
                     (= F1 0.0))
                (and a!15
                     (= Y G1)
                     (not (= Y 0.0))
                     (not (= Y 1.0))
                     (not (= Y 2.0))
                     (not (= Y 3.0))
                     (not (= Y 23.0))
                     (not (= Y 5.0))
                     (not (= Y 6.0))
                     (not (= Y 13.0))
                     (not (= Y 4.0))
                     (= Y 7.0)
                     (= Z 3.0)
                     (= E1 1.0)
                     (= F1 0.0))
                (and a!15
                     (= Y G1)
                     (not (= Y 0.0))
                     (not (= Y 1.0))
                     (not (= Y 2.0))
                     (not (= Y 3.0))
                     (not (= Y 23.0))
                     (not (= Y 5.0))
                     (not (= Y 6.0))
                     (not (= Y 13.0))
                     (not (= Y 4.0))
                     (not (= Y 7.0))
                     (= Y 8.0)
                     (= Z 3.0)
                     (= E1 1.0)
                     (= F1 0.0))
                (and a!15
                     (= Y G1)
                     (not (= Y 0.0))
                     (not (= Y 1.0))
                     (not (= Y 2.0))
                     (not (= Y 3.0))
                     (not (= Y 23.0))
                     (not (= Y 5.0))
                     (not (= Y 6.0))
                     (not (= Y 13.0))
                     (not (= Y 4.0))
                     (not (= Y 7.0))
                     (not (= Y 8.0))
                     (= Y 9.0)
                     (= Z 3.0)
                     (= E1 1.0)
                     (= F1 0.0))
                (and a!15
                     (= Y G1)
                     (not (= Y 0.0))
                     (not (= Y 1.0))
                     (not (= Y 2.0))
                     (not (= Y 3.0))
                     (not (= Y 23.0))
                     (not (= Y 5.0))
                     (not (= Y 6.0))
                     (not (= Y 13.0))
                     (not (= Y 4.0))
                     (not (= Y 7.0))
                     (not (= Y 8.0))
                     (not (= Y 9.0))
                     (= Y 12.0)
                     (= Z 3.0)
                     (= E1 1.0)
                     (= F1 0.0))
                (and a!15
                     (= Y G1)
                     (not (= Y 0.0))
                     (not (= Y 1.0))
                     (not (= Y 2.0))
                     (not (= Y 3.0))
                     (not (= Y 23.0))
                     (not (= Y 5.0))
                     (not (= Y 6.0))
                     (not (= Y 13.0))
                     (not (= Y 4.0))
                     (not (= Y 7.0))
                     (not (= Y 8.0))
                     (not (= Y 9.0))
                     (not (= Y 12.0))
                     (= Y 10.0)
                     (= Z 3.0)
                     (= E1 1.0)
                     (= F1 0.0))
                (and a!15
                     (= Y G1)
                     (not (= Y 0.0))
                     (not (= Y 1.0))
                     (not (= Y 2.0))
                     (not (= Y 3.0))
                     (not (= Y 23.0))
                     (not (= Y 5.0))
                     (not (= Y 6.0))
                     (not (= Y 13.0))
                     (not (= Y 4.0))
                     (not (= Y 7.0))
                     (not (= Y 8.0))
                     (not (= Y 9.0))
                     (not (= Y 12.0))
                     (not (= Y 10.0))
                     (= Y 11.0)
                     (= Z 3.0)
                     (= E1 1.0)
                     (= F1 0.0))
                (and a!15
                     (= Y G1)
                     (not (= Y 0.0))
                     (not (= Y 1.0))
                     (not (= Y 2.0))
                     (not (= Y 3.0))
                     (not (= Y 23.0))
                     (not (= Y 5.0))
                     (not (= Y 6.0))
                     (not (= Y 13.0))
                     (not (= Y 4.0))
                     (not (= Y 7.0))
                     (not (= Y 8.0))
                     (not (= Y 9.0))
                     (not (= Y 12.0))
                     (not (= Y 10.0))
                     (not (= Y 11.0))
                     (= Y 15.0)
                     (= Z 3.0)
                     (= E1 1.0)
                     (= F1 0.0))
                (and a!15
                     (= Y G1)
                     (not (= Y 0.0))
                     (not (= Y 1.0))
                     (not (= Y 2.0))
                     (not (= Y 3.0))
                     (not (= Y 23.0))
                     (not (= Y 5.0))
                     (not (= Y 6.0))
                     (not (= Y 13.0))
                     (not (= Y 4.0))
                     (not (= Y 7.0))
                     (not (= Y 8.0))
                     (not (= Y 9.0))
                     (not (= Y 12.0))
                     (not (= Y 10.0))
                     (not (= Y 11.0))
                     (not (= Y 15.0))
                     (= Y 16.0)
                     (= Z 3.0)
                     (= E1 1.0)
                     (= F1 0.0))
                (and a!15
                     (= Y G1)
                     (not (= Y 0.0))
                     (not (= Y 1.0))
                     (not (= Y 2.0))
                     (not (= Y 3.0))
                     (not (= Y 23.0))
                     (not (= Y 5.0))
                     (not (= Y 6.0))
                     (not (= Y 13.0))
                     (not (= Y 4.0))
                     (not (= Y 7.0))
                     (not (= Y 8.0))
                     (not (= Y 9.0))
                     (not (= Y 12.0))
                     (not (= Y 10.0))
                     (not (= Y 11.0))
                     (not (= Y 15.0))
                     (not (= Y 16.0))
                     (= Y 17.0)
                     (= Z 3.0)
                     (= E1 1.0)
                     (= F1 0.0))
                (and a!15
                     (= Y G1)
                     (not (= Y 0.0))
                     (not (= Y 1.0))
                     (not (= Y 2.0))
                     (not (= Y 3.0))
                     (not (= Y 23.0))
                     (not (= Y 5.0))
                     (not (= Y 6.0))
                     (not (= Y 13.0))
                     (not (= Y 4.0))
                     (not (= Y 7.0))
                     (not (= Y 8.0))
                     (not (= Y 9.0))
                     (not (= Y 12.0))
                     (not (= Y 10.0))
                     (not (= Y 11.0))
                     (not (= Y 15.0))
                     (not (= Y 16.0))
                     (not (= Y 17.0))
                     (= Y 18.0)
                     (= Z 3.0)
                     (= E1 1.0)
                     (= F1 0.0))
                (and a!15
                     (= Y G1)
                     (not (= Y 0.0))
                     (not (= Y 1.0))
                     (not (= Y 2.0))
                     (not (= Y 3.0))
                     (not (= Y 23.0))
                     (not (= Y 5.0))
                     (not (= Y 6.0))
                     (not (= Y 13.0))
                     (not (= Y 4.0))
                     (not (= Y 7.0))
                     (not (= Y 8.0))
                     (not (= Y 9.0))
                     (not (= Y 12.0))
                     (not (= Y 10.0))
                     (not (= Y 11.0))
                     (not (= Y 15.0))
                     (not (= Y 16.0))
                     (not (= Y 17.0))
                     (not (= Y 18.0))
                     (= Y 19.0)
                     (= Z 3.0)
                     (= E1 1.0)
                     (= F1 0.0))
                (and a!15
                     (= Y G1)
                     (not (= Y 0.0))
                     (not (= Y 1.0))
                     (not (= Y 2.0))
                     (not (= Y 3.0))
                     (not (= Y 23.0))
                     (not (= Y 5.0))
                     (not (= Y 6.0))
                     (not (= Y 13.0))
                     (not (= Y 4.0))
                     (not (= Y 7.0))
                     (not (= Y 8.0))
                     (not (= Y 9.0))
                     (not (= Y 12.0))
                     (not (= Y 10.0))
                     (not (= Y 11.0))
                     (not (= Y 15.0))
                     (not (= Y 16.0))
                     (not (= Y 17.0))
                     (not (= Y 18.0))
                     (not (= Y 19.0))
                     (not (= Y 20.0))
                     (= Z 3.0)
                     (= E1 1.0)
                     (= F1 0.0))
                (and a!15
                     (= Y G1)
                     (not (= Y 0.0))
                     (not (= Y 1.0))
                     (not (= Y 2.0))
                     (not (= Y 3.0))
                     (not (= Y 23.0))
                     (not (= Y 5.0))
                     (not (= Y 6.0))
                     (not (= Y 13.0))
                     (not (= Y 4.0))
                     (not (= Y 7.0))
                     (not (= Y 8.0))
                     (not (= Y 9.0))
                     (not (= Y 12.0))
                     (not (= Y 10.0))
                     (not (= Y 11.0))
                     (not (= Y 15.0))
                     (not (= Y 16.0))
                     (not (= Y 17.0))
                     (not (= Y 18.0))
                     (not (= Y 19.0))
                     (= Y 20.0)
                     (= Z 3.0)
                     (= E1 1.0)
                     (= F1 0.0))))
      (a!19 (or (and a!18
                     (= Y J2)
                     (not (= Y 0.0))
                     (= Y 23.0)
                     (= E1 1.0)
                     (= F1 0.0)
                     (= H1 3.0)
                     (= K1 0.0)
                     (= G2 0.0)
                     (= H2 3.0))
                (and a!18
                     (= K2 1.0)
                     (= Y J2)
                     (not (= Y 0.0))
                     (= Y 23.0)
                     (= E1 1.0)
                     (= F1 0.0)
                     (= H1 3.0)
                     (= K1 3221225473.0)
                     (not (= G2 0.0))
                     (= H2 3.0))
                (and a!18
                     (not (= K2 1.0))
                     (= Y J2)
                     (not (= Y 0.0))
                     (= Y 23.0)
                     (= E1 1.0)
                     (= F1 0.0)
                     (= H1 3.0)
                     (= K1 259.0)
                     (not (= G2 0.0))
                     (= H2 3.0))))
      (a!21 (or (and a!20
                     (= Y E2)
                     (not (= Y 0.0))
                     (= Y 2.0)
                     (not (= Y 23.0))
                     (= E1 1.0)
                     (= F1 0.0)
                     (= H1 3.0)
                     (= L1 0.0)
                     (= B2 0.0)
                     (= C2 3.0))
                (and a!20
                     (= Y E2)
                     (not (= Y 0.0))
                     (= Y 2.0)
                     (not (= Y 23.0))
                     (= E1 1.0)
                     (= F1 0.0)
                     (= H1 3.0)
                     (= L1 3221225473.0)
                     (not (= B2 0.0))
                     (= C2 3.0)
                     (= F2 1.0))
                (and a!20
                     (= Y E2)
                     (not (= Y 0.0))
                     (= Y 2.0)
                     (not (= Y 23.0))
                     (= E1 1.0)
                     (= F1 0.0)
                     (= H1 3.0)
                     (= L1 259.0)
                     (not (= B2 0.0))
                     (= C2 3.0)
                     (not (= F2 1.0))))))
(let ((a!3 (or (and a!2 (= R2 0.0) (= V1 0.0))
               (and a!2 (not (= R2 0.0)) (= V2 1.0) (= V1 3221225473.0))
               (and a!2 (not (= R2 0.0)) (not (= V2 1.0)) (= V1 259.0))))
      (a!8 (or (and a!7 (= W2 0.0) (= V1 0.0))
               (and a!7 (not (= W2 0.0)) (= A3 1.0) (= V1 3221225473.0))
               (and a!7 (not (= W2 0.0)) (not (= A3 1.0)) (= V1 259.0))))
      (a!14 (or (and a!13 (= L2 0.0) (= V1 0.0))
                (and a!13 (not (= L2 0.0)) (= Q2 1.0) (= V1 3221225473.0))
                (and a!13 (not (= L2 0.0)) (not (= Q2 1.0)) (= V1 259.0))))
      (a!17 (or (and a!16 (= X 0.0) (= H1 3.0) (= J1 0.0))
                (and a!16
                     (not (= X 0.0))
                     (= H1 3.0)
                     (= I1 1.0)
                     (= J1 3221225473.0))
                (and a!16
                     (not (= X 0.0))
                     (= H1 3.0)
                     (not (= I1 1.0))
                     (= J1 259.0)))))
(let ((a!4 (or (and a!3 (= E1 1.0) (= H1 7.0) (= U1 V1))
               (and a!3
                    (not (= E1 1.0))
                    (= E1 3.0)
                    (not (= E1 5.0))
                    (= H1 4.0)
                    (= U1 V1))
               (and a!3
                    (not (= E1 1.0))
                    (= E1 5.0)
                    (= H1 1.0)
                    (= U1 V1)
                    (not (= V1 259.0)))
               (and a!3
                    (not (= E1 1.0))
                    (= E1 5.0)
                    (= H1 6.0)
                    (= U1 V1)
                    (= V1 259.0))))
      (a!9 (or (and a!8 (= B3 7.0) (= E1 1.0) (= U1 V1))
               (and a!8
                    (= B3 1.0)
                    (not (= E1 1.0))
                    (= E1 5.0)
                    (= U1 V1)
                    (not (= V1 259.0)))
               (and a!8
                    (= B3 6.0)
                    (not (= E1 1.0))
                    (= E1 5.0)
                    (= U1 V1)
                    (= V1 259.0))
               (and a!8
                    (= B3 4.0)
                    (not (= E1 1.0))
                    (= E1 3.0)
                    (not (= E1 5.0))
                    (= U1 V1)))))
(let ((a!5 (or (and a!4 (not (= H1 6.0)) (= N1 R1) (= N1 V1) (= R1 259.0))
               (and a!4
                    (not (= F1 1.0))
                    (= H1 6.0)
                    (= N1 R1)
                    (= N1 V1)
                    (= R1 259.0))))
      (a!10 (or (and a!9 (not (= B3 6.0)) (= N1 R1) (= N1 V1) (= R1 259.0))
                (and a!9
                     (= B3 6.0)
                     (not (= F1 1.0))
                     (= N1 R1)
                     (= N1 V1)
                     (= R1 259.0)))))
(let ((a!11 (or (and a!10 (not (= B3 6.0)) (= H1 B3))
                (and a!9 (= H1 B3) (= N1 R1) (= N1 V1) (not (= R1 259.0)))
                (and a!9
                     (= B3 6.0)
                     (= F1 1.0)
                     (= H1 1.0)
                     (= N1 R1)
                     (= N1 V1)
                     (= R1 259.0)))))
  (or (and (not A) (not B) (not C) D (not X1) (not Y1) (not Z1) A2)
      (and (not A)
           (not B)
           (not C)
           (not D)
           (not X1)
           Y1
           Z1
           (not A2)
           a!5
           (= E K1)
           (= F L1)
           (= I O1)
           (= J P1)
           (= K Q1)
           (= M S1)
           (= N T1)
           (= Q W1)
           (= H1 6.0)
           (= J1 R))
      (and (not A)
           (not B)
           (not C)
           (not D)
           X1
           (not Y1)
           Z1
           (not A2)
           a!11
           (= E K1)
           (= F L1)
           (= I O1)
           (= J P1)
           (= K Q1)
           (= M S1)
           (= N T1)
           (= Q W1)
           (not (= H1 1.0))
           (= J1 R))
      (and (not A)
           (not B)
           (not C)
           (not D)
           (not X1)
           (not Y1)
           Z1
           (not A2)
           a!14
           (= E K1)
           (= F L1)
           (= H N1)
           (= I O1)
           (= J P1)
           (= K Q1)
           (= L R1)
           (= M S1)
           (= N T1)
           (= O U1)
           (= Q W1)
           (not (= H1 1.0))
           (not (= H1 3.0))
           (not (= H1 5.0))
           (= J1 R))
      (and (not A)
           (not B)
           (not C)
           (not D)
           (not X1)
           Y1
           (not Z1)
           (not A2)
           a!17
           (= E K1)
           (= F L1)
           (= G M1)
           (= H N1)
           (= I O1)
           (= J P1)
           (= K Q1)
           (= L R1)
           (= M S1)
           (= N T1)
           (= O U1)
           (= P V1)
           (= Q W1)
           (not (= H1 1.0))
           (not (= H1 3.0))
           (not (= H1 5.0)))
      (and (not A)
           (not B)
           (not C)
           (not D)
           X1
           Y1
           (not Z1)
           (not A2)
           a!19
           (= F L1)
           (= G M1)
           (= H N1)
           (= I O1)
           (= J P1)
           (= K Q1)
           (= L R1)
           (= M S1)
           (= N T1)
           (= O U1)
           (= P V1)
           (= Q W1)
           (not (= H1 1.0))
           (not (= H1 3.0))
           (not (= H1 5.0))
           (= J1 R))
      (and (not A)
           (not B)
           (not C)
           (not D)
           X1
           (not Y1)
           (not Z1)
           (not A2)
           a!21
           (= E K1)
           (= G M1)
           (= H N1)
           (= I O1)
           (= J P1)
           (= K Q1)
           (= L R1)
           (= M S1)
           (= N T1)
           (= O U1)
           (= P V1)
           (= Q W1)
           (not (= H1 1.0))
           (not (= H1 3.0))
           (not (= H1 5.0))
           (= J1 R))
      (and (not A)
           (not B)
           C
           (not D)
           (not X1)
           (not Y1)
           (not Z1)
           A2
           (= E K1)
           (= F L1)
           (= G M1)
           (= H N1)
           (= I O1)
           (= J P1)
           (= K Q1)
           (= L R1)
           (= M S1)
           (= N T1)
           (= O U1)
           (= P V1)
           (= Q W1)
           (= Y S)
           (= A1 V)
           (= D1 T)
           (= F1 W)
           (= H1 U)
           (= J1 R))
      (and (not A)
           B
           (not C)
           (not D)
           (not X1)
           (not Y1)
           (not Z1)
           A2
           (= E K1)
           (= F L1)
           (= G M1)
           (= H N1)
           (= I O1)
           (= J P1)
           (= K Q1)
           (= L R1)
           (= M S1)
           (= N T1)
           (= O U1)
           (= P V1)
           (= Q W1)
           (= Y S)
           (= A1 V)
           (= D1 T)
           (= F1 W)
           (= H1 U)
           (= J1 R))
      (and (not A)
           B
           C
           (not D)
           (not X1)
           (not Y1)
           (not Z1)
           A2
           (= E K1)
           (= F L1)
           (= G M1)
           (= H N1)
           (= I O1)
           (= J P1)
           (= K Q1)
           (= L R1)
           (= M S1)
           (= N T1)
           (= O U1)
           (= P V1)
           (= Q W1)
           (= Y S)
           (= A1 V)
           (= D1 T)
           (= F1 W)
           (= H1 U)
           (= J1 R))
      (and A
           (not B)
           (not C)
           (not D)
           (not X1)
           (not Y1)
           (not Z1)
           A2
           (= E K1)
           (= F L1)
           (= G M1)
           (= H N1)
           (= I O1)
           (= J P1)
           (= K Q1)
           (= L R1)
           (= M S1)
           (= N T1)
           (= O U1)
           (= P V1)
           (= Q W1)
           (= Y S)
           (= A1 V)
           (= D1 T)
           (= F1 W)
           (= H1 U)
           (= J1 R))
      (and A
           (not B)
           C
           (not D)
           (not X1)
           (not Y1)
           (not Z1)
           A2
           (= E K1)
           (= F L1)
           (= G M1)
           (= H N1)
           (= I O1)
           (= J P1)
           (= K Q1)
           (= L R1)
           (= M S1)
           (= N T1)
           (= O U1)
           (= P V1)
           (= Q W1)
           (= Y S)
           (= A1 V)
           (= D1 T)
           (= F1 W)
           (= H1 U)
           (= J1 R))
      (and A
           B
           (not C)
           (not D)
           (not X1)
           (not Y1)
           (not Z1)
           A2
           (= E K1)
           (= F L1)
           (= G M1)
           (= H N1)
           (= I O1)
           (= J P1)
           (= K Q1)
           (= L R1)
           (= M S1)
           (= N T1)
           (= O U1)
           (= P V1)
           (= Q W1)
           (= Y S)
           (= A1 V)
           (= D1 T)
           (= F1 W)
           (= H1 U)
           (= J1 R)))))))))
      )
      (state Y1 X1 Z1 A2 K1 L1 M1 N1 O1 P1 Q1 R1 S1 T1 U1 V1 W1 J1 Y D1 H1 A1 F1)
    )
  )
)
(assert
  (forall ( (A Bool) (B Bool) (C Bool) (D Bool) (E Real) (F Real) (G Real) (H Real) (I Real) (J Real) (K Real) (L Real) (M Real) (N Real) (O Real) (P Real) (Q Real) (R Real) (S Real) (T Real) (U Real) (V Real) (W Real) ) 
    (=>
      (and
        (state A B C D E F G H I J K L M N O P Q R S T U V W)
        (and (not C) (not B) (not A) (= D true))
      )
      false
    )
  )
)

(check-sat)
(exit)
